2,3
3,9
5,6
7,2
9,2
11,4
13,6
15,8
18,0
20,2
22,4
24,7
26,9
29,1
31,3
33,5
35,7
37,9
40,1
42,3
44,5
46,7
48,9
51,1
53,4
55,6
55,6
55,6
55,6
55,6
55,6
55,6
55,6
55,6
55,6
55,6
55,6
55,6
55,6
55,6
55,6
55,6
55,6
55,6
55,6
55,6
55,6
55,6
55,6
55,6
55,6
55,6
55,6
55,6
55,6
55,6
55,6
55,6
55,6
55,6
0,0
0,0
